webassembly/ejemplos_dzn/folder7_json_14.dzn
TERM = { '.', 's(2)', 'in_1', 'local_1', 'in_2', 'in_4', 'in_3', 's(1)', 's(0)', 'in_5', 'in_0'};
null = '.';
s = 7;
n = 11;
ndeps = 2;
max_registers_sz = 4;
NR = 1;
registers = [|'local_1', 's(2)'|];
dependencies = [|'i32.store16_0', 'i32.load16_u_2', |'i32.store16_0', 'i32.load8_s_3'|];
GET_ENUM = { GET1, GET2, GET3, GET4, GET5};
SET_ENUM = { SET1, SET2, SET3, SET4, SET5};
TEE_ENUM = { TEE1, TEE2, TEE3, TEE4, TEE5};
N = 4;
OP = { 'i32.add_0', 'i32.store16_0', 'i32.load16_u_2', 'i32.load8_s_3' };
in_ops = [2, 2, 1, 1 ];
out_ops = [1, 0, 1, 1 ];
in1 = ['in_4', 'in_0', 'in_3', 's(0)' ];
in2 = ['in_5', 'in_1', '.', '.' ];
in3 = ['.', '.', '.', '.' ];
out1 = ['s(2)', '.', 's(0)', 's(1)' ];
out2 = ['.', '.', '.', '.' ];
out3 = ['.', '.', '.', '.' ];
comm = [true, false, false, false ];
gas = [1, 1, 1, 1 ];
sz = [1, 1, 1, 1 ];
stor = [false, true, false, false ];
lb = [ 1, 1, 1, 1 ];
ub = [ 7, 7, 7, 7 ];
startstack = [ 'in_0', 'in_1', 'in_2', 'in_3', 'in_4', 'in_5', null, null, null, null, null ];
endstack = [ 's(2)', null, null, null, null, null, null, null, null, null, null ];
