webassembly/ejemplos_results/7/folder7_json_14.txt
value = 7;
fgas = [1, 1, 1, 1, 1, 1, 1];
fsize = [1, 1, 1, 1, 1, 1, 1];
states = 
[|   in_0, in_1, in_2, in_3, in_4, in_5, '.', '.', '.', '.', '.'
 |   in_3, in_5, in_4, in_5,  '.',  '.', '.', '.', '.', '.', '.'
 | 's(0)', in_5, in_4, in_5,  '.',  '.', '.', '.', '.', '.', '.'
 | 's(0)', in_5, in_4, in_5,  '.',  '.', '.', '.', '.', '.', '.'
 | 's(1)', in_5, in_4, in_5,  '.',  '.', '.', '.', '.', '.', '.'
 |   in_5, in_4, in_5,  '.',  '.',  '.', '.', '.', '.', '.', '.'
 | 's(2)',  '.',  '.',  '.',  '.',  '.', '.', '.', '.', '.', '.'
 | 's(2)',  '.',  '.',  '.',  '.',  '.', '.', '.', '.', '.', '.'
 |];
register_states = 
[| local_1, '.', '.', '.', '.'
 | local_1, '.', '.', '.', '.'
 | local_1, '.', '.', '.', '.'
 |  's(0)', '.', '.', '.', '.'
 |  's(0)', '.', '.', '.', '.'
 |  's(1)', '.', '.', '.', '.'
 |  's(1)', '.', '.', '.', '.'
 |  's(2)', '.', '.', '.', '.'
 |];
program = [O('i32.store16_0'), O('i32.load16_u_2'), TEE(TEE1), O('i32.load8_s_3'), S(SET1), O('i32.add_0'), TEE(TEE1)];
% time elapsed: 0.11 s
----------
value = 6;
fgas = [1, 1, 1, 1, 2, 1, 0];
fsize = [1, 1, 1, 1, 1, 1, 1];
states = 
[|   in_0, in_1, in_2, in_3, in_4, in_5, '.', '.', '.', '.', '.'
 | 's(2)', in_3, in_4, in_5,  '.',  '.', '.', '.', '.', '.', '.'
 |   in_3, in_4, in_5,  '.',  '.',  '.', '.', '.', '.', '.', '.'
 | 's(0)', in_4, in_5,  '.',  '.',  '.', '.', '.', '.', '.', '.'
 | 's(1)', in_4, in_5,  '.',  '.',  '.', '.', '.', '.', '.', '.'
 |   in_4, in_5,  '.',  '.',  '.',  '.', '.', '.', '.', '.', '.'
 | 's(2)',  '.',  '.',  '.',  '.',  '.', '.', '.', '.', '.', '.'
 | 's(2)',  '.',  '.',  '.',  '.',  '.', '.', '.', '.', '.', '.'
 |];
register_states = 
[| local_1, '.', '.', '.', '.'
 | local_1, '.', '.', '.', '.'
 |  's(2)', '.', '.', '.', '.'
 |  's(2)', '.', '.', '.', '.'
 |  's(2)', '.', '.', '.', '.'
 |  's(2)', '.', '.', '.', '.'
 |  's(2)', '.', '.', '.', '.'
 |  's(2)', '.', '.', '.', '.'
 |];
program = [O('i32.store16_0'), S(SET1), O('i32.load16_u_2'), O('i32.load8_s_3'), POP, O('i32.add_0'), NOP];
% time elapsed: 0.11 s
----------
==========
% time elapsed: 0.11 s
% [value > 5]
